c clasp version 2.1.1
c Reading from p38.cnf
c Solving...
s SATISFIABLE

c Models        : 1+    
c Time          : 1.847s (Solving: 0.16s 1st Model: 0.16s Unsat: 0.00s)
c CPU Time      : 1.830s
c Choices       : 3665
c Conflicts     : 226
c Restarts      : 0     

c Variables     : 232558 (Eliminated: 73010 Frozen:    0)
c Constraints   : 266969 (Binary: 64.8% Ternary: 33.9% Other:  1.3%)
c Lemmas        : 226    (Binary:  0.4% Ternary:  0.9% Other: 98.7%)
c   Conflict    : 226    (Average Length: 41.6) 
c   Loop        : 0      (Average Length: 0.0) 
c   Other       : 0      (Average Length: 0.0)
c   Deleted     : 0     
